kpoints along symmetry lines
36 ! 11 intersections
line mode
rec
0.0000 0.0000 0.0000 ! Gamma
0.5000 0.0000 0.5000 ! X

0.5000 0.0000 0.5000 ! X
0.5000 0.2500 0.7500 ! W

0.5000 0.2500 0.7500 ! W
0.3750 0.3750 0.7500 ! K

0.3750 0.3750 0.7500 ! K
0.0000 0.0000 0.0000 ! Gamma

0.0000 0.0000 0.0000 ! Gamma
0.5000 0.5000 0.5000 ! L

0.5000 0.5000 0.5000 ! L
0.6250 0.2500 0.6250 ! U

0.6250 0.2500 0.6250 ! U
0.5000 0.2500 0.7500 ! W

0.5000 0.2500 0.7500 ! W
0.5000 0.5000 0.5000 ! L

0.5000 0.5000 0.5000 ! L
0.3750 0.3750 0.7500 ! K

0.6250 0.2500 0.6250 ! U
0.5000 0.0000 0.5000 ! X

