num_wann =  10
num_bands = 28
exclude_bands = 1-100


begin projections
Au : d
end projections

dis_froz_max = 10
dis_num_iter = 2000
dis_conv_tol = 1.0e-10
num_iter = 0

write_hr =.true.
dis_mix_ratio = 0.7


spinors = true

begin unit_cell_cart
     0.0000000     2.0856442     2.0856442
     2.0856442     0.0000000     2.0856442
     2.0856442     2.0856442     0.0000000
end unit_cell_cart

begin atoms_cart
Au       0.0000000     0.0000000     0.0000000
end atoms_cart

mp_grid =     6     6     6

begin kpoints
      0.000000000000      0.000000000000      0.000000000000
      0.166666666667      0.000000000000      0.000000000000
      0.333333333333      0.000000000000      0.000000000000
      0.500000000000      0.000000000000      0.000000000000
     -0.333333333333      0.000000000000      0.000000000000
     -0.166666666667      0.000000000000      0.000000000000
      0.000000000000      0.166666666667      0.000000000000
      0.166666666667      0.166666666667      0.000000000000
      0.333333333333      0.166666666667      0.000000000000
      0.500000000000      0.166666666667      0.000000000000
     -0.333333333333      0.166666666667      0.000000000000
     -0.166666666667      0.166666666667      0.000000000000
      0.000000000000      0.333333333333      0.000000000000
      0.166666666667      0.333333333333      0.000000000000
      0.333333333333      0.333333333333      0.000000000000
      0.500000000000      0.333333333333      0.000000000000
     -0.333333333333      0.333333333333      0.000000000000
     -0.166666666667      0.333333333333      0.000000000000
      0.000000000000      0.500000000000      0.000000000000
      0.166666666667      0.500000000000      0.000000000000
      0.333333333333      0.500000000000      0.000000000000
      0.500000000000      0.500000000000      0.000000000000
     -0.333333333333      0.500000000000      0.000000000000
     -0.166666666667      0.500000000000      0.000000000000
      0.000000000000     -0.333333333333      0.000000000000
      0.166666666667     -0.333333333333      0.000000000000
      0.333333333333     -0.333333333333      0.000000000000
      0.500000000000     -0.333333333333      0.000000000000
     -0.333333333333     -0.333333333333      0.000000000000
     -0.166666666667     -0.333333333333      0.000000000000
      0.000000000000     -0.166666666667      0.000000000000
      0.166666666667     -0.166666666667      0.000000000000
      0.333333333333     -0.166666666667      0.000000000000
      0.500000000000     -0.166666666667      0.000000000000
     -0.333333333333     -0.166666666667      0.000000000000
     -0.166666666667     -0.166666666667      0.000000000000
      0.000000000000      0.000000000000      0.166666666667
      0.166666666667      0.000000000000      0.166666666667
      0.333333333333      0.000000000000      0.166666666667
      0.500000000000      0.000000000000      0.166666666667
     -0.333333333333      0.000000000000      0.166666666667
     -0.166666666667      0.000000000000      0.166666666667
      0.000000000000      0.166666666667      0.166666666667
      0.166666666667      0.166666666667      0.166666666667
      0.333333333333      0.166666666667      0.166666666667
      0.500000000000      0.166666666667      0.166666666667
     -0.333333333333      0.166666666667      0.166666666667
     -0.166666666667      0.166666666667      0.166666666667
      0.000000000000      0.333333333333      0.166666666667
      0.166666666667      0.333333333333      0.166666666667
      0.333333333333      0.333333333333      0.166666666667
      0.500000000000      0.333333333333      0.166666666667
     -0.333333333333      0.333333333333      0.166666666667
     -0.166666666667      0.333333333333      0.166666666667
      0.000000000000      0.500000000000      0.166666666667
      0.166666666667      0.500000000000      0.166666666667
      0.333333333333      0.500000000000      0.166666666667
      0.500000000000      0.500000000000      0.166666666667
     -0.333333333333      0.500000000000      0.166666666667
     -0.166666666667      0.500000000000      0.166666666667
      0.000000000000     -0.333333333333      0.166666666667
      0.166666666667     -0.333333333333      0.166666666667
      0.333333333333     -0.333333333333      0.166666666667
      0.500000000000     -0.333333333333      0.166666666667
     -0.333333333333     -0.333333333333      0.166666666667
     -0.166666666667     -0.333333333333      0.166666666667
      0.000000000000     -0.166666666667      0.166666666667
      0.166666666667     -0.166666666667      0.166666666667
      0.333333333333     -0.166666666667      0.166666666667
      0.500000000000     -0.166666666667      0.166666666667
     -0.333333333333     -0.166666666667      0.166666666667
     -0.166666666667     -0.166666666667      0.166666666667
      0.000000000000      0.000000000000      0.333333333333
      0.166666666667      0.000000000000      0.333333333333
      0.333333333333      0.000000000000      0.333333333333
      0.500000000000      0.000000000000      0.333333333333
     -0.333333333333      0.000000000000      0.333333333333
     -0.166666666667      0.000000000000      0.333333333333
      0.000000000000      0.166666666667      0.333333333333
      0.166666666667      0.166666666667      0.333333333333
      0.333333333333      0.166666666667      0.333333333333
      0.500000000000      0.166666666667      0.333333333333
     -0.333333333333      0.166666666667      0.333333333333
     -0.166666666667      0.166666666667      0.333333333333
      0.000000000000      0.333333333333      0.333333333333
      0.166666666667      0.333333333333      0.333333333333
      0.333333333333      0.333333333333      0.333333333333
      0.500000000000      0.333333333333      0.333333333333
     -0.333333333333      0.333333333333      0.333333333333
     -0.166666666667      0.333333333333      0.333333333333
      0.000000000000      0.500000000000      0.333333333333
      0.166666666667      0.500000000000      0.333333333333
      0.333333333333      0.500000000000      0.333333333333
      0.500000000000      0.500000000000      0.333333333333
     -0.333333333333      0.500000000000      0.333333333333
     -0.166666666667      0.500000000000      0.333333333333
      0.000000000000     -0.333333333333      0.333333333333
      0.166666666667     -0.333333333333      0.333333333333
      0.333333333333     -0.333333333333      0.333333333333
      0.500000000000     -0.333333333333      0.333333333333
     -0.333333333333     -0.333333333333      0.333333333333
     -0.166666666667     -0.333333333333      0.333333333333
      0.000000000000     -0.166666666667      0.333333333333
      0.166666666667     -0.166666666667      0.333333333333
      0.333333333333     -0.166666666667      0.333333333333
      0.500000000000     -0.166666666667      0.333333333333
     -0.333333333333     -0.166666666667      0.333333333333
     -0.166666666667     -0.166666666667      0.333333333333
      0.000000000000      0.000000000000      0.500000000000
      0.166666666667      0.000000000000      0.500000000000
      0.333333333333      0.000000000000      0.500000000000
      0.500000000000      0.000000000000      0.500000000000
     -0.333333333333      0.000000000000      0.500000000000
     -0.166666666667      0.000000000000      0.500000000000
      0.000000000000      0.166666666667      0.500000000000
      0.166666666667      0.166666666667      0.500000000000
      0.333333333333      0.166666666667      0.500000000000
      0.500000000000      0.166666666667      0.500000000000
     -0.333333333333      0.166666666667      0.500000000000
     -0.166666666667      0.166666666667      0.500000000000
      0.000000000000      0.333333333333      0.500000000000
      0.166666666667      0.333333333333      0.500000000000
      0.333333333333      0.333333333333      0.500000000000
      0.500000000000      0.333333333333      0.500000000000
     -0.333333333333      0.333333333333      0.500000000000
     -0.166666666667      0.333333333333      0.500000000000
      0.000000000000      0.500000000000      0.500000000000
      0.166666666667      0.500000000000      0.500000000000
      0.333333333333      0.500000000000      0.500000000000
      0.500000000000      0.500000000000      0.500000000000
     -0.333333333333      0.500000000000      0.500000000000
     -0.166666666667      0.500000000000      0.500000000000
      0.000000000000     -0.333333333333      0.500000000000
      0.166666666667     -0.333333333333      0.500000000000
      0.333333333333     -0.333333333333      0.500000000000
      0.500000000000     -0.333333333333      0.500000000000
     -0.333333333333     -0.333333333333      0.500000000000
     -0.166666666667     -0.333333333333      0.500000000000
      0.000000000000     -0.166666666667      0.500000000000
      0.166666666667     -0.166666666667      0.500000000000
      0.333333333333     -0.166666666667      0.500000000000
      0.500000000000     -0.166666666667      0.500000000000
     -0.333333333333     -0.166666666667      0.500000000000
     -0.166666666667     -0.166666666667      0.500000000000
      0.000000000000      0.000000000000     -0.333333333333
      0.166666666667      0.000000000000     -0.333333333333
      0.333333333333      0.000000000000     -0.333333333333
      0.500000000000      0.000000000000     -0.333333333333
     -0.333333333333      0.000000000000     -0.333333333333
     -0.166666666667      0.000000000000     -0.333333333333
      0.000000000000      0.166666666667     -0.333333333333
      0.166666666667      0.166666666667     -0.333333333333
      0.333333333333      0.166666666667     -0.333333333333
      0.500000000000      0.166666666667     -0.333333333333
     -0.333333333333      0.166666666667     -0.333333333333
     -0.166666666667      0.166666666667     -0.333333333333
      0.000000000000      0.333333333333     -0.333333333333
      0.166666666667      0.333333333333     -0.333333333333
      0.333333333333      0.333333333333     -0.333333333333
      0.500000000000      0.333333333333     -0.333333333333
     -0.333333333333      0.333333333333     -0.333333333333
     -0.166666666667      0.333333333333     -0.333333333333
      0.000000000000      0.500000000000     -0.333333333333
      0.166666666667      0.500000000000     -0.333333333333
      0.333333333333      0.500000000000     -0.333333333333
      0.500000000000      0.500000000000     -0.333333333333
     -0.333333333333      0.500000000000     -0.333333333333
     -0.166666666667      0.500000000000     -0.333333333333
      0.000000000000     -0.333333333333     -0.333333333333
      0.166666666667     -0.333333333333     -0.333333333333
      0.333333333333     -0.333333333333     -0.333333333333
      0.500000000000     -0.333333333333     -0.333333333333
     -0.333333333333     -0.333333333333     -0.333333333333
     -0.166666666667     -0.333333333333     -0.333333333333
      0.000000000000     -0.166666666667     -0.333333333333
      0.166666666667     -0.166666666667     -0.333333333333
      0.333333333333     -0.166666666667     -0.333333333333
      0.500000000000     -0.166666666667     -0.333333333333
     -0.333333333333     -0.166666666667     -0.333333333333
     -0.166666666667     -0.166666666667     -0.333333333333
      0.000000000000      0.000000000000     -0.166666666667
      0.166666666667      0.000000000000     -0.166666666667
      0.333333333333      0.000000000000     -0.166666666667
      0.500000000000      0.000000000000     -0.166666666667
     -0.333333333333      0.000000000000     -0.166666666667
     -0.166666666667      0.000000000000     -0.166666666667
      0.000000000000      0.166666666667     -0.166666666667
      0.166666666667      0.166666666667     -0.166666666667
      0.333333333333      0.166666666667     -0.166666666667
      0.500000000000      0.166666666667     -0.166666666667
     -0.333333333333      0.166666666667     -0.166666666667
     -0.166666666667      0.166666666667     -0.166666666667
      0.000000000000      0.333333333333     -0.166666666667
      0.166666666667      0.333333333333     -0.166666666667
      0.333333333333      0.333333333333     -0.166666666667
      0.500000000000      0.333333333333     -0.166666666667
     -0.333333333333      0.333333333333     -0.166666666667
     -0.166666666667      0.333333333333     -0.166666666667
      0.000000000000      0.500000000000     -0.166666666667
      0.166666666667      0.500000000000     -0.166666666667
      0.333333333333      0.500000000000     -0.166666666667
      0.500000000000      0.500000000000     -0.166666666667
     -0.333333333333      0.500000000000     -0.166666666667
     -0.166666666667      0.500000000000     -0.166666666667
      0.000000000000     -0.333333333333     -0.166666666667
      0.166666666667     -0.333333333333     -0.166666666667
      0.333333333333     -0.333333333333     -0.166666666667
      0.500000000000     -0.333333333333     -0.166666666667
     -0.333333333333     -0.333333333333     -0.166666666667
     -0.166666666667     -0.333333333333     -0.166666666667
      0.000000000000     -0.166666666667     -0.166666666667
      0.166666666667     -0.166666666667     -0.166666666667
      0.333333333333     -0.166666666667     -0.166666666667
      0.500000000000     -0.166666666667     -0.166666666667
     -0.333333333333     -0.166666666667     -0.166666666667
     -0.166666666667     -0.166666666667     -0.166666666667
end kpoints
