Au1
1.0
        0.0000000000         2.0856442452         2.0856442452
        2.0856442452         0.0000000000         2.0856442452
        2.0856442452         2.0856442452         0.0000000000
Au
    1
Direct
     0.000000000         0.000000000         0.000000000


