num_wann =  16
num_bands = 20
exclude_bands = 21-128


begin projections
Au : p
Au : d
end projections

dis_froz_max = 5
dis_num_iter = 2000
dis_conv_tol = 1.0e-10
num_iter = 0

write_hr=.true
dis_mix_ratio=0.7

spinors = true

geninterp=.true.

begin unit_cell_cart
     0.0000000     2.0856442     2.0856442
     2.0856442     0.0000000     2.0856442
     2.0856442     2.0856442     0.0000000
end unit_cell_cart

begin atoms_cart
Au       0.0000000     0.0000000     0.0000000
end atoms_cart

mp_grid =    10    10    10

begin kpoints
      0.000000000000      0.000000000000      0.000000000000
      0.100000000000      0.000000000000      0.000000000000
      0.200000000000      0.000000000000      0.000000000000
      0.300000000000      0.000000000000      0.000000000000
      0.400000000000      0.000000000000      0.000000000000
      0.500000000000      0.000000000000      0.000000000000
     -0.400000000000      0.000000000000      0.000000000000
     -0.300000000000      0.000000000000      0.000000000000
     -0.200000000000      0.000000000000      0.000000000000
     -0.100000000000      0.000000000000      0.000000000000
      0.000000000000      0.100000000000      0.000000000000
      0.100000000000      0.100000000000      0.000000000000
      0.200000000000      0.100000000000      0.000000000000
      0.300000000000      0.100000000000      0.000000000000
      0.400000000000      0.100000000000      0.000000000000
      0.500000000000      0.100000000000      0.000000000000
     -0.400000000000      0.100000000000      0.000000000000
     -0.300000000000      0.100000000000      0.000000000000
     -0.200000000000      0.100000000000      0.000000000000
     -0.100000000000      0.100000000000      0.000000000000
      0.000000000000      0.200000000000      0.000000000000
      0.100000000000      0.200000000000      0.000000000000
      0.200000000000      0.200000000000      0.000000000000
      0.300000000000      0.200000000000      0.000000000000
      0.400000000000      0.200000000000      0.000000000000
      0.500000000000      0.200000000000      0.000000000000
     -0.400000000000      0.200000000000      0.000000000000
     -0.300000000000      0.200000000000      0.000000000000
     -0.200000000000      0.200000000000      0.000000000000
     -0.100000000000      0.200000000000      0.000000000000
      0.000000000000      0.300000000000      0.000000000000
      0.100000000000      0.300000000000      0.000000000000
      0.200000000000      0.300000000000      0.000000000000
      0.300000000000      0.300000000000      0.000000000000
      0.400000000000      0.300000000000      0.000000000000
      0.500000000000      0.300000000000      0.000000000000
     -0.400000000000      0.300000000000      0.000000000000
     -0.300000000000      0.300000000000      0.000000000000
     -0.200000000000      0.300000000000      0.000000000000
     -0.100000000000      0.300000000000      0.000000000000
      0.000000000000      0.400000000000      0.000000000000
      0.100000000000      0.400000000000      0.000000000000
      0.200000000000      0.400000000000      0.000000000000
      0.300000000000      0.400000000000      0.000000000000
      0.400000000000      0.400000000000      0.000000000000
      0.500000000000      0.400000000000      0.000000000000
     -0.400000000000      0.400000000000      0.000000000000
     -0.300000000000      0.400000000000      0.000000000000
     -0.200000000000      0.400000000000      0.000000000000
     -0.100000000000      0.400000000000      0.000000000000
      0.000000000000      0.500000000000      0.000000000000
      0.100000000000      0.500000000000      0.000000000000
      0.200000000000      0.500000000000      0.000000000000
      0.300000000000      0.500000000000      0.000000000000
      0.400000000000      0.500000000000      0.000000000000
      0.500000000000      0.500000000000      0.000000000000
     -0.400000000000      0.500000000000      0.000000000000
     -0.300000000000      0.500000000000      0.000000000000
     -0.200000000000      0.500000000000      0.000000000000
     -0.100000000000      0.500000000000      0.000000000000
      0.000000000000     -0.400000000000      0.000000000000
      0.100000000000     -0.400000000000      0.000000000000
      0.200000000000     -0.400000000000      0.000000000000
      0.300000000000     -0.400000000000      0.000000000000
      0.400000000000     -0.400000000000      0.000000000000
      0.500000000000     -0.400000000000      0.000000000000
     -0.400000000000     -0.400000000000      0.000000000000
     -0.300000000000     -0.400000000000      0.000000000000
     -0.200000000000     -0.400000000000      0.000000000000
     -0.100000000000     -0.400000000000      0.000000000000
      0.000000000000     -0.300000000000      0.000000000000
      0.100000000000     -0.300000000000      0.000000000000
      0.200000000000     -0.300000000000      0.000000000000
      0.300000000000     -0.300000000000      0.000000000000
      0.400000000000     -0.300000000000      0.000000000000
      0.500000000000     -0.300000000000      0.000000000000
     -0.400000000000     -0.300000000000      0.000000000000
     -0.300000000000     -0.300000000000      0.000000000000
     -0.200000000000     -0.300000000000      0.000000000000
     -0.100000000000     -0.300000000000      0.000000000000
      0.000000000000     -0.200000000000      0.000000000000
      0.100000000000     -0.200000000000      0.000000000000
      0.200000000000     -0.200000000000      0.000000000000
      0.300000000000     -0.200000000000      0.000000000000
      0.400000000000     -0.200000000000      0.000000000000
      0.500000000000     -0.200000000000      0.000000000000
     -0.400000000000     -0.200000000000      0.000000000000
     -0.300000000000     -0.200000000000      0.000000000000
     -0.200000000000     -0.200000000000      0.000000000000
     -0.100000000000     -0.200000000000      0.000000000000
      0.000000000000     -0.100000000000      0.000000000000
      0.100000000000     -0.100000000000      0.000000000000
      0.200000000000     -0.100000000000      0.000000000000
      0.300000000000     -0.100000000000      0.000000000000
      0.400000000000     -0.100000000000      0.000000000000
      0.500000000000     -0.100000000000      0.000000000000
     -0.400000000000     -0.100000000000      0.000000000000
     -0.300000000000     -0.100000000000      0.000000000000
     -0.200000000000     -0.100000000000      0.000000000000
     -0.100000000000     -0.100000000000      0.000000000000
      0.000000000000      0.000000000000      0.100000000000
      0.100000000000      0.000000000000      0.100000000000
      0.200000000000      0.000000000000      0.100000000000
      0.300000000000      0.000000000000      0.100000000000
      0.400000000000      0.000000000000      0.100000000000
      0.500000000000      0.000000000000      0.100000000000
     -0.400000000000      0.000000000000      0.100000000000
     -0.300000000000      0.000000000000      0.100000000000
     -0.200000000000      0.000000000000      0.100000000000
     -0.100000000000      0.000000000000      0.100000000000
      0.000000000000      0.100000000000      0.100000000000
      0.100000000000      0.100000000000      0.100000000000
      0.200000000000      0.100000000000      0.100000000000
      0.300000000000      0.100000000000      0.100000000000
      0.400000000000      0.100000000000      0.100000000000
      0.500000000000      0.100000000000      0.100000000000
     -0.400000000000      0.100000000000      0.100000000000
     -0.300000000000      0.100000000000      0.100000000000
     -0.200000000000      0.100000000000      0.100000000000
     -0.100000000000      0.100000000000      0.100000000000
      0.000000000000      0.200000000000      0.100000000000
      0.100000000000      0.200000000000      0.100000000000
      0.200000000000      0.200000000000      0.100000000000
      0.300000000000      0.200000000000      0.100000000000
      0.400000000000      0.200000000000      0.100000000000
      0.500000000000      0.200000000000      0.100000000000
     -0.400000000000      0.200000000000      0.100000000000
     -0.300000000000      0.200000000000      0.100000000000
     -0.200000000000      0.200000000000      0.100000000000
     -0.100000000000      0.200000000000      0.100000000000
      0.000000000000      0.300000000000      0.100000000000
      0.100000000000      0.300000000000      0.100000000000
      0.200000000000      0.300000000000      0.100000000000
      0.300000000000      0.300000000000      0.100000000000
      0.400000000000      0.300000000000      0.100000000000
      0.500000000000      0.300000000000      0.100000000000
     -0.400000000000      0.300000000000      0.100000000000
     -0.300000000000      0.300000000000      0.100000000000
     -0.200000000000      0.300000000000      0.100000000000
     -0.100000000000      0.300000000000      0.100000000000
      0.000000000000      0.400000000000      0.100000000000
      0.100000000000      0.400000000000      0.100000000000
      0.200000000000      0.400000000000      0.100000000000
      0.300000000000      0.400000000000      0.100000000000
      0.400000000000      0.400000000000      0.100000000000
      0.500000000000      0.400000000000      0.100000000000
     -0.400000000000      0.400000000000      0.100000000000
     -0.300000000000      0.400000000000      0.100000000000
     -0.200000000000      0.400000000000      0.100000000000
     -0.100000000000      0.400000000000      0.100000000000
      0.000000000000      0.500000000000      0.100000000000
      0.100000000000      0.500000000000      0.100000000000
      0.200000000000      0.500000000000      0.100000000000
      0.300000000000      0.500000000000      0.100000000000
      0.400000000000      0.500000000000      0.100000000000
      0.500000000000      0.500000000000      0.100000000000
     -0.400000000000      0.500000000000      0.100000000000
     -0.300000000000      0.500000000000      0.100000000000
     -0.200000000000      0.500000000000      0.100000000000
     -0.100000000000      0.500000000000      0.100000000000
      0.000000000000     -0.400000000000      0.100000000000
      0.100000000000     -0.400000000000      0.100000000000
      0.200000000000     -0.400000000000      0.100000000000
      0.300000000000     -0.400000000000      0.100000000000
      0.400000000000     -0.400000000000      0.100000000000
      0.500000000000     -0.400000000000      0.100000000000
     -0.400000000000     -0.400000000000      0.100000000000
     -0.300000000000     -0.400000000000      0.100000000000
     -0.200000000000     -0.400000000000      0.100000000000
     -0.100000000000     -0.400000000000      0.100000000000
      0.000000000000     -0.300000000000      0.100000000000
      0.100000000000     -0.300000000000      0.100000000000
      0.200000000000     -0.300000000000      0.100000000000
      0.300000000000     -0.300000000000      0.100000000000
      0.400000000000     -0.300000000000      0.100000000000
      0.500000000000     -0.300000000000      0.100000000000
     -0.400000000000     -0.300000000000      0.100000000000
     -0.300000000000     -0.300000000000      0.100000000000
     -0.200000000000     -0.300000000000      0.100000000000
     -0.100000000000     -0.300000000000      0.100000000000
      0.000000000000     -0.200000000000      0.100000000000
      0.100000000000     -0.200000000000      0.100000000000
      0.200000000000     -0.200000000000      0.100000000000
      0.300000000000     -0.200000000000      0.100000000000
      0.400000000000     -0.200000000000      0.100000000000
      0.500000000000     -0.200000000000      0.100000000000
     -0.400000000000     -0.200000000000      0.100000000000
     -0.300000000000     -0.200000000000      0.100000000000
     -0.200000000000     -0.200000000000      0.100000000000
     -0.100000000000     -0.200000000000      0.100000000000
      0.000000000000     -0.100000000000      0.100000000000
      0.100000000000     -0.100000000000      0.100000000000
      0.200000000000     -0.100000000000      0.100000000000
      0.300000000000     -0.100000000000      0.100000000000
      0.400000000000     -0.100000000000      0.100000000000
      0.500000000000     -0.100000000000      0.100000000000
     -0.400000000000     -0.100000000000      0.100000000000
     -0.300000000000     -0.100000000000      0.100000000000
     -0.200000000000     -0.100000000000      0.100000000000
     -0.100000000000     -0.100000000000      0.100000000000
      0.000000000000      0.000000000000      0.200000000000
      0.100000000000      0.000000000000      0.200000000000
      0.200000000000      0.000000000000      0.200000000000
      0.300000000000      0.000000000000      0.200000000000
      0.400000000000      0.000000000000      0.200000000000
      0.500000000000      0.000000000000      0.200000000000
     -0.400000000000      0.000000000000      0.200000000000
     -0.300000000000      0.000000000000      0.200000000000
     -0.200000000000      0.000000000000      0.200000000000
     -0.100000000000      0.000000000000      0.200000000000
      0.000000000000      0.100000000000      0.200000000000
      0.100000000000      0.100000000000      0.200000000000
      0.200000000000      0.100000000000      0.200000000000
      0.300000000000      0.100000000000      0.200000000000
      0.400000000000      0.100000000000      0.200000000000
      0.500000000000      0.100000000000      0.200000000000
     -0.400000000000      0.100000000000      0.200000000000
     -0.300000000000      0.100000000000      0.200000000000
     -0.200000000000      0.100000000000      0.200000000000
     -0.100000000000      0.100000000000      0.200000000000
      0.000000000000      0.200000000000      0.200000000000
      0.100000000000      0.200000000000      0.200000000000
      0.200000000000      0.200000000000      0.200000000000
      0.300000000000      0.200000000000      0.200000000000
      0.400000000000      0.200000000000      0.200000000000
      0.500000000000      0.200000000000      0.200000000000
     -0.400000000000      0.200000000000      0.200000000000
     -0.300000000000      0.200000000000      0.200000000000
     -0.200000000000      0.200000000000      0.200000000000
     -0.100000000000      0.200000000000      0.200000000000
      0.000000000000      0.300000000000      0.200000000000
      0.100000000000      0.300000000000      0.200000000000
      0.200000000000      0.300000000000      0.200000000000
      0.300000000000      0.300000000000      0.200000000000
      0.400000000000      0.300000000000      0.200000000000
      0.500000000000      0.300000000000      0.200000000000
     -0.400000000000      0.300000000000      0.200000000000
     -0.300000000000      0.300000000000      0.200000000000
     -0.200000000000      0.300000000000      0.200000000000
     -0.100000000000      0.300000000000      0.200000000000
      0.000000000000      0.400000000000      0.200000000000
      0.100000000000      0.400000000000      0.200000000000
      0.200000000000      0.400000000000      0.200000000000
      0.300000000000      0.400000000000      0.200000000000
      0.400000000000      0.400000000000      0.200000000000
      0.500000000000      0.400000000000      0.200000000000
     -0.400000000000      0.400000000000      0.200000000000
     -0.300000000000      0.400000000000      0.200000000000
     -0.200000000000      0.400000000000      0.200000000000
     -0.100000000000      0.400000000000      0.200000000000
      0.000000000000      0.500000000000      0.200000000000
      0.100000000000      0.500000000000      0.200000000000
      0.200000000000      0.500000000000      0.200000000000
      0.300000000000      0.500000000000      0.200000000000
      0.400000000000      0.500000000000      0.200000000000
      0.500000000000      0.500000000000      0.200000000000
     -0.400000000000      0.500000000000      0.200000000000
     -0.300000000000      0.500000000000      0.200000000000
     -0.200000000000      0.500000000000      0.200000000000
     -0.100000000000      0.500000000000      0.200000000000
      0.000000000000     -0.400000000000      0.200000000000
      0.100000000000     -0.400000000000      0.200000000000
      0.200000000000     -0.400000000000      0.200000000000
      0.300000000000     -0.400000000000      0.200000000000
      0.400000000000     -0.400000000000      0.200000000000
      0.500000000000     -0.400000000000      0.200000000000
     -0.400000000000     -0.400000000000      0.200000000000
     -0.300000000000     -0.400000000000      0.200000000000
     -0.200000000000     -0.400000000000      0.200000000000
     -0.100000000000     -0.400000000000      0.200000000000
      0.000000000000     -0.300000000000      0.200000000000
      0.100000000000     -0.300000000000      0.200000000000
      0.200000000000     -0.300000000000      0.200000000000
      0.300000000000     -0.300000000000      0.200000000000
      0.400000000000     -0.300000000000      0.200000000000
      0.500000000000     -0.300000000000      0.200000000000
     -0.400000000000     -0.300000000000      0.200000000000
     -0.300000000000     -0.300000000000      0.200000000000
     -0.200000000000     -0.300000000000      0.200000000000
     -0.100000000000     -0.300000000000      0.200000000000
      0.000000000000     -0.200000000000      0.200000000000
      0.100000000000     -0.200000000000      0.200000000000
      0.200000000000     -0.200000000000      0.200000000000
      0.300000000000     -0.200000000000      0.200000000000
      0.400000000000     -0.200000000000      0.200000000000
      0.500000000000     -0.200000000000      0.200000000000
     -0.400000000000     -0.200000000000      0.200000000000
     -0.300000000000     -0.200000000000      0.200000000000
     -0.200000000000     -0.200000000000      0.200000000000
     -0.100000000000     -0.200000000000      0.200000000000
      0.000000000000     -0.100000000000      0.200000000000
      0.100000000000     -0.100000000000      0.200000000000
      0.200000000000     -0.100000000000      0.200000000000
      0.300000000000     -0.100000000000      0.200000000000
      0.400000000000     -0.100000000000      0.200000000000
      0.500000000000     -0.100000000000      0.200000000000
     -0.400000000000     -0.100000000000      0.200000000000
     -0.300000000000     -0.100000000000      0.200000000000
     -0.200000000000     -0.100000000000      0.200000000000
     -0.100000000000     -0.100000000000      0.200000000000
      0.000000000000      0.000000000000      0.300000000000
      0.100000000000      0.000000000000      0.300000000000
      0.200000000000      0.000000000000      0.300000000000
      0.300000000000      0.000000000000      0.300000000000
      0.400000000000      0.000000000000      0.300000000000
      0.500000000000      0.000000000000      0.300000000000
     -0.400000000000      0.000000000000      0.300000000000
     -0.300000000000      0.000000000000      0.300000000000
     -0.200000000000      0.000000000000      0.300000000000
     -0.100000000000      0.000000000000      0.300000000000
      0.000000000000      0.100000000000      0.300000000000
      0.100000000000      0.100000000000      0.300000000000
      0.200000000000      0.100000000000      0.300000000000
      0.300000000000      0.100000000000      0.300000000000
      0.400000000000      0.100000000000      0.300000000000
      0.500000000000      0.100000000000      0.300000000000
     -0.400000000000      0.100000000000      0.300000000000
     -0.300000000000      0.100000000000      0.300000000000
     -0.200000000000      0.100000000000      0.300000000000
     -0.100000000000      0.100000000000      0.300000000000
      0.000000000000      0.200000000000      0.300000000000
      0.100000000000      0.200000000000      0.300000000000
      0.200000000000      0.200000000000      0.300000000000
      0.300000000000      0.200000000000      0.300000000000
      0.400000000000      0.200000000000      0.300000000000
      0.500000000000      0.200000000000      0.300000000000
     -0.400000000000      0.200000000000      0.300000000000
     -0.300000000000      0.200000000000      0.300000000000
     -0.200000000000      0.200000000000      0.300000000000
     -0.100000000000      0.200000000000      0.300000000000
      0.000000000000      0.300000000000      0.300000000000
      0.100000000000      0.300000000000      0.300000000000
      0.200000000000      0.300000000000      0.300000000000
      0.300000000000      0.300000000000      0.300000000000
      0.400000000000      0.300000000000      0.300000000000
      0.500000000000      0.300000000000      0.300000000000
     -0.400000000000      0.300000000000      0.300000000000
     -0.300000000000      0.300000000000      0.300000000000
     -0.200000000000      0.300000000000      0.300000000000
     -0.100000000000      0.300000000000      0.300000000000
      0.000000000000      0.400000000000      0.300000000000
      0.100000000000      0.400000000000      0.300000000000
      0.200000000000      0.400000000000      0.300000000000
      0.300000000000      0.400000000000      0.300000000000
      0.400000000000      0.400000000000      0.300000000000
      0.500000000000      0.400000000000      0.300000000000
     -0.400000000000      0.400000000000      0.300000000000
     -0.300000000000      0.400000000000      0.300000000000
     -0.200000000000      0.400000000000      0.300000000000
     -0.100000000000      0.400000000000      0.300000000000
      0.000000000000      0.500000000000      0.300000000000
      0.100000000000      0.500000000000      0.300000000000
      0.200000000000      0.500000000000      0.300000000000
      0.300000000000      0.500000000000      0.300000000000
      0.400000000000      0.500000000000      0.300000000000
      0.500000000000      0.500000000000      0.300000000000
     -0.400000000000      0.500000000000      0.300000000000
     -0.300000000000      0.500000000000      0.300000000000
     -0.200000000000      0.500000000000      0.300000000000
     -0.100000000000      0.500000000000      0.300000000000
      0.000000000000     -0.400000000000      0.300000000000
      0.100000000000     -0.400000000000      0.300000000000
      0.200000000000     -0.400000000000      0.300000000000
      0.300000000000     -0.400000000000      0.300000000000
      0.400000000000     -0.400000000000      0.300000000000
      0.500000000000     -0.400000000000      0.300000000000
     -0.400000000000     -0.400000000000      0.300000000000
     -0.300000000000     -0.400000000000      0.300000000000
     -0.200000000000     -0.400000000000      0.300000000000
     -0.100000000000     -0.400000000000      0.300000000000
      0.000000000000     -0.300000000000      0.300000000000
      0.100000000000     -0.300000000000      0.300000000000
      0.200000000000     -0.300000000000      0.300000000000
      0.300000000000     -0.300000000000      0.300000000000
      0.400000000000     -0.300000000000      0.300000000000
      0.500000000000     -0.300000000000      0.300000000000
     -0.400000000000     -0.300000000000      0.300000000000
     -0.300000000000     -0.300000000000      0.300000000000
     -0.200000000000     -0.300000000000      0.300000000000
     -0.100000000000     -0.300000000000      0.300000000000
      0.000000000000     -0.200000000000      0.300000000000
      0.100000000000     -0.200000000000      0.300000000000
      0.200000000000     -0.200000000000      0.300000000000
      0.300000000000     -0.200000000000      0.300000000000
      0.400000000000     -0.200000000000      0.300000000000
      0.500000000000     -0.200000000000      0.300000000000
     -0.400000000000     -0.200000000000      0.300000000000
     -0.300000000000     -0.200000000000      0.300000000000
     -0.200000000000     -0.200000000000      0.300000000000
     -0.100000000000     -0.200000000000      0.300000000000
      0.000000000000     -0.100000000000      0.300000000000
      0.100000000000     -0.100000000000      0.300000000000
      0.200000000000     -0.100000000000      0.300000000000
      0.300000000000     -0.100000000000      0.300000000000
      0.400000000000     -0.100000000000      0.300000000000
      0.500000000000     -0.100000000000      0.300000000000
     -0.400000000000     -0.100000000000      0.300000000000
     -0.300000000000     -0.100000000000      0.300000000000
     -0.200000000000     -0.100000000000      0.300000000000
     -0.100000000000     -0.100000000000      0.300000000000
      0.000000000000      0.000000000000      0.400000000000
      0.100000000000      0.000000000000      0.400000000000
      0.200000000000      0.000000000000      0.400000000000
      0.300000000000      0.000000000000      0.400000000000
      0.400000000000      0.000000000000      0.400000000000
      0.500000000000      0.000000000000      0.400000000000
     -0.400000000000      0.000000000000      0.400000000000
     -0.300000000000      0.000000000000      0.400000000000
     -0.200000000000      0.000000000000      0.400000000000
     -0.100000000000      0.000000000000      0.400000000000
      0.000000000000      0.100000000000      0.400000000000
      0.100000000000      0.100000000000      0.400000000000
      0.200000000000      0.100000000000      0.400000000000
      0.300000000000      0.100000000000      0.400000000000
      0.400000000000      0.100000000000      0.400000000000
      0.500000000000      0.100000000000      0.400000000000
     -0.400000000000      0.100000000000      0.400000000000
     -0.300000000000      0.100000000000      0.400000000000
     -0.200000000000      0.100000000000      0.400000000000
     -0.100000000000      0.100000000000      0.400000000000
      0.000000000000      0.200000000000      0.400000000000
      0.100000000000      0.200000000000      0.400000000000
      0.200000000000      0.200000000000      0.400000000000
      0.300000000000      0.200000000000      0.400000000000
      0.400000000000      0.200000000000      0.400000000000
      0.500000000000      0.200000000000      0.400000000000
     -0.400000000000      0.200000000000      0.400000000000
     -0.300000000000      0.200000000000      0.400000000000
     -0.200000000000      0.200000000000      0.400000000000
     -0.100000000000      0.200000000000      0.400000000000
      0.000000000000      0.300000000000      0.400000000000
      0.100000000000      0.300000000000      0.400000000000
      0.200000000000      0.300000000000      0.400000000000
      0.300000000000      0.300000000000      0.400000000000
      0.400000000000      0.300000000000      0.400000000000
      0.500000000000      0.300000000000      0.400000000000
     -0.400000000000      0.300000000000      0.400000000000
     -0.300000000000      0.300000000000      0.400000000000
     -0.200000000000      0.300000000000      0.400000000000
     -0.100000000000      0.300000000000      0.400000000000
      0.000000000000      0.400000000000      0.400000000000
      0.100000000000      0.400000000000      0.400000000000
      0.200000000000      0.400000000000      0.400000000000
      0.300000000000      0.400000000000      0.400000000000
      0.400000000000      0.400000000000      0.400000000000
      0.500000000000      0.400000000000      0.400000000000
     -0.400000000000      0.400000000000      0.400000000000
     -0.300000000000      0.400000000000      0.400000000000
     -0.200000000000      0.400000000000      0.400000000000
     -0.100000000000      0.400000000000      0.400000000000
      0.000000000000      0.500000000000      0.400000000000
      0.100000000000      0.500000000000      0.400000000000
      0.200000000000      0.500000000000      0.400000000000
      0.300000000000      0.500000000000      0.400000000000
      0.400000000000      0.500000000000      0.400000000000
      0.500000000000      0.500000000000      0.400000000000
     -0.400000000000      0.500000000000      0.400000000000
     -0.300000000000      0.500000000000      0.400000000000
     -0.200000000000      0.500000000000      0.400000000000
     -0.100000000000      0.500000000000      0.400000000000
      0.000000000000     -0.400000000000      0.400000000000
      0.100000000000     -0.400000000000      0.400000000000
      0.200000000000     -0.400000000000      0.400000000000
      0.300000000000     -0.400000000000      0.400000000000
      0.400000000000     -0.400000000000      0.400000000000
      0.500000000000     -0.400000000000      0.400000000000
     -0.400000000000     -0.400000000000      0.400000000000
     -0.300000000000     -0.400000000000      0.400000000000
     -0.200000000000     -0.400000000000      0.400000000000
     -0.100000000000     -0.400000000000      0.400000000000
      0.000000000000     -0.300000000000      0.400000000000
      0.100000000000     -0.300000000000      0.400000000000
      0.200000000000     -0.300000000000      0.400000000000
      0.300000000000     -0.300000000000      0.400000000000
      0.400000000000     -0.300000000000      0.400000000000
      0.500000000000     -0.300000000000      0.400000000000
     -0.400000000000     -0.300000000000      0.400000000000
     -0.300000000000     -0.300000000000      0.400000000000
     -0.200000000000     -0.300000000000      0.400000000000
     -0.100000000000     -0.300000000000      0.400000000000
      0.000000000000     -0.200000000000      0.400000000000
      0.100000000000     -0.200000000000      0.400000000000