Au
1.0
0.0000000000	2.0856442657	2.0856442657
2.0856442657	0.0000000000	2.0856442657
2.0856442657	2.0856442657	0.0000000000
Au
    1
Direct
     0.000000000         0.000000000         0.000000000


